instance3
30
0.98
0.67
0.05
0.24
0.78
0.69
0.8
0.51
0.17
0.4
0.01
0.46
0.14
0.62
0.34
0
0.63
0.42
0.11
0.65
0.19
0.85
0.99
0.42
0.44
0.51
0.75
0.61
0.14
0.55

































